4 4 100 1 2
0 700
 1 40.00 50.00 0.00 0.00 0.00 0 0 0 3390
 2 52.00 75.00 90.00 10.00 20.00 1 1 1 231 551
 3 45.00 70.00 90.00 30.00 10.00 1 1 1 133 453
 4 62.00 69.00 90.00 10.00 10.00 1 1 1 1087 1407
 5 60.00 66.00 90.00 10.00 10.00 1 1 1 1181 1501
 6 42.00 65.00 90.00 10.00 20.00 1 1 1 15 335
 7 16.00 42.00 90.00 20.00 30.00 1 1 1 417 737
 8 58.00 70.00 90.00 20.00 20.00 1 1 1 993 1313
 9 34.00 60.00 90.00 20.00 10.00 1 1 1 2807 3127
 10 28.00 70.00 90.00 10.00 30.00 1 1 1 2521 2841
 11 35.00 66.00 90.00 10.00 10.00 1 1 1 2711 3031
 12 35.00 69.00 90.00 10.00 20.00 1 1 1 2618 2938
 13 25.00 85.00 90.00 20.00 10.00 1 1 1 2039 2359
 14 22.00 75.00 90.00 30.00 20.00 1 1 1 2325 2645
 15 22.00 85.00 90.00 10.00 10.00 1 1 1 1946 2266
 16 20.00 80.00 90.00 40.00 10.00 1 1 1 2136 2456
 17 20.00 85.00 90.00 40.00 20.00 1 1 1 1854 2174
 18 18.00 75.00 90.00 20.00 20.00 1 1 1 2231 2551
 19 15.00 75.00 90.00 20.00 10.00 1 1 1 1662 1982
 20 15.00 80.00 90.00 10.00 10.00 1 1 1 1757 2077
 21 30.00 50.00 90.00 10.00 10.00 1 1 1 10 330
 22 30.00 56.00 90.00 20.00 20.00 1 1 1 2903 3223
 23 28.00 52.00 90.00 20.00 30.00 1 1 1 12 332
 24 14.00 66.00 90.00 10.00 10.00 1 1 1 1563 1883
 25 25.00 50.00 90.00 10.00 40.00 1 1 1 36 356
 26 22.00 66.00 90.00 40.00 10.00 1 1 1 2424 2744
 27 8.00 62.00 90.00 10.00 10.00 1 1 1 1465 1785
 28 23.00 52.00 90.00 10.00 10.00 1 1 1 129 449
 29 4.00 55.00 90.00 20.00 20.00 1 1 1 1367 1687
 30 20.00 50.00 90.00 10.00 10.00 1 1 1 318 638
 31 20.00 55.00 90.00 10.00 30.00 1 1 1 223 543
 32 10.00 35.00 90.00 20.00 10.00 1 1 1 701 1021
 33 10.00 40.00 90.00 30.00 30.00 1 1 1 513 833
 34 8.00 40.00 90.00 40.00 10.00 1 1 1 605 925
 35 8.00 45.00 90.00 20.00 10.00 1 1 1 1266 1586
 36 5.00 35.00 90.00 10.00 10.00 1 1 1 796 1116
 37 5.00 45.00 90.00 10.00 10.00 1 1 1 1173 1493
 38 2.00 40.00 90.00 20.00 10.00 1 1 1 891 1211
 39 0.00 40.00 90.00 30.00 20.00 1 1 1 983 1303
 40 0.00 45.00 90.00 20.00 10.00 1 1 1 1078 1398
 41 36.00 18.00 90.00 10.00 40.00 1 1 1 1739 2059
 42 35.00 32.00 90.00 10.00 10.00 1 1 1 2678 2998
 43 33.00 32.00 90.00 20.00 40.00 1 1 1 2586 2906
 44 33.00 35.00 90.00 10.00 10.00 1 1 1 2493 2813
 45 32.00 20.00 90.00 10.00 30.00 1 1 1 1833 2153
 46 30.00 30.00 90.00 10.00 30.00 1 1 1 2025 2345
 47 34.00 25.00 90.00 30.00 30.00 1 1 1 1929 2249
 48 30.00 35.00 90.00 10.00 10.00 1 1 1 2400 2720
 49 36.00 40.00 90.00 10.00 20.00 1 1 1 2776 3096
 50 48.00 20.00 90.00 10.00 10.00 1 1 1 887 1207
 51 26.00 32.00 90.00 10.00 10.00 1 1 1 2212 2532
 52 25.00 30.00 90.00 10.00 10.00 1 1 1 2120 2440
 53 25.00 35.00 90.00 10.00 10.00 1 1 1 2305 2625
 54 44.00 5.00 90.00 20.00 40.00 1 1 1 1176 1496
 55 42.00 10.00 90.00 40.00 10.00 1 1 1 1080 1400
 56 42.00 15.00 90.00 10.00 10.00 1 1 1 985 1305
 57 40.00 5.00 90.00 30.00 10.00 1 1 1 1270 1590
 58 38.00 15.00 90.00 40.00 10.00 1 1 1 1645 1965
 59 38.00 5.00 90.00 30.00 30.00 1 1 1 1362 1682
 60 38.00 10.00 90.00 10.00 10.00 1 1 1 1550 1870
 61 35.00 5.00 90.00 20.00 40.00 1 1 1 1455 1775
 62 50.00 30.00 90.00 10.00 10.00 1 1 1 321 641
 63 50.00 35.00 90.00 20.00 30.00 1 1 1 40 360
 64 50.00 40.00 90.00 50.00 10.00 1 1 1 14 334
 65 48.00 30.00 90.00 10.00 10.00 1 1 1 413 733
 66 44.00 25.00 90.00 10.00 40.00 1 1 1 791 1111
 67 47.00 35.00 90.00 10.00 20.00 1 1 1 508 828
 68 47.00 40.00 90.00 10.00 10.00 1 1 1 12 332
 69 42.00 30.00 90.00 10.00 10.00 1 1 1 696 1016
 70 45.00 35.00 90.00 10.00 20.00 1 1 1 600 920
 71 95.00 30.00 90.00 30.00 20.00 1 1 1 2241 2561
 72 95.00 35.00 90.00 20.00 10.00 1 1 1 2146 2466
 73 53.00 30.00 90.00 10.00 10.00 1 1 1 228 548
 74 92.00 30.00 90.00 10.00 20.00 1 1 1 2334 2654
 75 53.00 35.00 90.00 50.00 20.00 1 1 1 133 453
 76 45.00 65.00 90.00 20.00 10.00 1 1 1 38 358
 77 90.00 35.00 90.00 10.00 10.00 1 1 1 2051 2371
 78 72.00 45.00 90.00 10.00 30.00 1 1 1 2820 3140
 79 78.00 40.00 90.00 20.00 20.00 1 1 1 2722 3042
 80 87.00 30.00 90.00 10.00 20.00 1 1 1 2528 2848
 81 85.00 25.00 90.00 10.00 40.00 1 1 1 2433 2753
 82 85.00 35.00 90.00 30.00 20.00 1 1 1 2623 2943
 83 75.00 55.00 90.00 20.00 10.00 1 1 1 1845 2165
 84 72.00 55.00 90.00 10.00 30.00 1 1 1 1752 2072
 85 70.00 58.00 90.00 20.00 10.00 1 1 1 1561 1881
 86 86.00 46.00 90.00 30.00 20.00 1 1 1 1949 2269
 87 66.00 55.00 90.00 10.00 20.00 1 1 1 1656 1976
 88 64.00 46.00 90.00 20.00 10.00 1 1 1 2955 3275
 89 65.00 60.00 90.00 30.00 10.00 1 1 1 1466 1786
 90 56.00 64.00 90.00 10.00 20.00 1 1 1 1275 1595
 91 60.00 55.00 90.00 10.00 20.00 1 1 1 2959 3279
 92 60.00 60.00 90.00 10.00 10.00 1 1 1 1371 1691
 93 67.00 85.00 90.00 20.00 50.00 1 1 1 614 934
 94 42.00 58.00 90.00 40.00 20.00 1 1 1 8 328
 95 65.00 82.00 90.00 10.00 10.00 1 1 1 708 1028
 96 62.00 80.00 90.00 30.00 30.00 1 1 1 801 1121
 97 62.00 40.00 90.00 10.00 20.00 1 1 1 2921 3241
 98 60.00 85.00 90.00 30.00 20.00 1 1 1 517 837
 99 58.00 75.00 90.00 20.00 10.00 1 1 1 898 1218
 100 55.00 80.00 90.00 10.00 10.00 1 1 1 327 647
 101 55.00 85.00 90.00 20.00 50.00 1 1 1 422 742
